1
1000
120
499 1
496 1
495 1
492 1
489 1
477 1
476 1
474 1
473 1
471 1
470 1
456 1
454 1
453 1
450 1
449 1
447 1
447 1
446 1
442 1
435 1
433 1
432 1
431 1
422 1
422 1
416 1
414 1
401 1
399 1
398 1
397 1
396 1
388 1
385 1
384 1
379 1
378 1
377 1
360 1
359 1
357 1
352 1
337 1
332 1
330 1
324 1
323 1
322 1
321 1
319 1
319 1
314 1
314 1
308 1
307 1
306 1
304 1
301 1
300 1
296 1
296 1
296 1
294 1
292 1
289 1
288 1
288 1
286 1
285 1
285 1
283 1
282 1
280 1
279 1
279 1
279 1
279 1
276 1
275 1
275 1
274 1
274 1
273 1
272 1
271 1
270 1
270 1
269 1
269 1
269 1
267 1
267 1
266 1
266 1
263 1
262 1
260 1
259 1
259 1
258 1
258 1
257 1
257 1
257 1
257 1
256 1
256 1
255 1
254 1
254 1
254 1
253 1
253 1
252 1
252 1
251 1
251 1
251 1
250 1
